Route 1: 0 71 61 94 53 42 39 12 7 0
Route 2: 0 29 60 21 72 85 59 35 68 24 28 46 2 0
Route 3: 0 56 58 57 64 90 55 10 0
Route 4: 0 26 67 78 97 23 43 81 96 37 0
Route 5: 0 11 98 88 76 38 40 91 16 93 82 22 9 0
Route 6: 0 5 13 69 14 17 100 80 66 1 18 4 0
Route 7: 0 95 54 84 89 41 74 8 6 0
Route 8: 0 83 86 65 70 48 99 30 15 31 34 52 0
Route 9: 0 75 51 62 20 63 19 92 49 0
Route 10: 0 87 44 47 73 50 77 3 25 0
Route 11: 0 33 36 27 45 79 32 0
